column=9;
row=9;
left=[0, 2, 3, 0, 0, 0, 0, 4, 2];
right=[0, 0, 0, 0, 2, 0, 0, 2, 0];
top=[0, 0, 0, 0, 0, 0, 0, 0, 4];
bottom=[4, 1, 0, 0, 4, 0, 5, 3, 3];
Board=[|0,7,0,0,5,0,3,1,4|0,0,2,7,0,0,0,6,0|0,1,0,3,9,6,0,0,0|0,6,0,9,2,0,0,5,0|0,0,3,6,0,0,0,0,0|7,0,0,0,0,0,0,2,0|3,4,0,0,0,0,0,7,0|0,0,0,0,0,9,0,0,0|0,0,7,0,0,5,0,0,0|]